(set-logic QF_LRA)
(declare-fun X0 () Real )
(declare-fun Y0 () Real )
(declare-fun X1 () Real )
(declare-fun Y1 () Real )
(declare-fun X2 () Real )
(declare-fun Y2 () Real )
(declare-fun X3 () Real )
(declare-fun Y3 () Real )
(declare-fun X4 () Real )
(declare-fun Y4 () Real )
(declare-fun X5 () Real )
(declare-fun Y5 () Real )
(declare-fun X6 () Real )
(declare-fun Y6 () Real )
(declare-fun X7 () Real )
(declare-fun Y7 () Real )
(declare-fun X8 () Real )
(declare-fun Y8 () Real )
(declare-fun X9 () Real )
(declare-fun Y9 () Real )
(declare-fun X10 () Real )
(declare-fun Y10 () Real )
(declare-fun X11 () Real )
(declare-fun Y11 () Real )
(declare-fun X12 () Real )
(declare-fun Y12 () Real )
(declare-fun X13 () Real )
(declare-fun Y13 () Real )
(declare-fun X14 () Real )
(declare-fun Y14 () Real )
(declare-fun Z () Real )
(declare-fun k () Real )
(assert (let
(( $goal (>= Z k) ))
(let
((
$phi ( and 
( or ( <= ( + X0 40 ) X1 )  ( <= ( + X1 50 ) X0 )  ( <= ( + Y0 44 ) Y1 )  ( <= ( + Y1 80 ) Y0 )  )
( or ( <= ( + X0 40 ) X2 )  ( <= ( + X2 78 ) X0 )  ( <= ( + Y0 44 ) Y2 )  ( <= ( + Y2 64 ) Y0 )  )
( or ( <= ( + X0 40 ) X3 )  ( <= ( + X3 25 ) X0 )  ( <= ( + Y0 44 ) Y3 )  ( <= ( + Y3 24 ) Y0 )  )
( or ( <= ( + X0 40 ) X4 )  ( <= ( + X4 95 ) X0 )  ( <= ( + Y0 44 ) Y4 )  ( <= ( + Y4 47 ) Y0 )  )
( or ( <= ( + X0 40 ) X5 )  ( <= ( + X5 32 ) X0 )  ( <= ( + Y0 44 ) Y5 )  ( <= ( + Y5 2 ) Y0 )  )
( or ( <= ( + X0 40 ) X6 )  ( <= ( + X6 54 ) X0 )  ( <= ( + Y0 44 ) Y6 )  ( <= ( + Y6 71 ) Y0 )  )
( or ( <= ( + X0 40 ) X7 )  ( <= ( + X7 77 ) X0 )  ( <= ( + Y0 44 ) Y7 )  ( <= ( + Y7 9 ) Y0 )  )
( or ( <= ( + X0 40 ) X8 )  ( <= ( + X8 67 ) X0 )  ( <= ( + Y0 44 ) Y8 )  ( <= ( + Y8 65 ) Y0 )  )
( or ( <= ( + X0 40 ) X9 )  ( <= ( + X9 16 ) X0 )  ( <= ( + Y0 44 ) Y9 )  ( <= ( + Y9 1 ) Y0 )  )
( or ( <= ( + X0 40 ) X10 )  ( <= ( + X10 9 ) X0 )  ( <= ( + Y0 44 ) Y10 )  ( <= ( + Y10 92 ) Y0 )  )
( or ( <= ( + X0 40 ) X11 )  ( <= ( + X11 79 ) X0 )  ( <= ( + Y0 44 ) Y11 )  ( <= ( + Y11 17 ) Y0 )  )
( or ( <= ( + X0 40 ) X12 )  ( <= ( + X12 84 ) X0 )  ( <= ( + Y0 44 ) Y12 )  ( <= ( + Y12 9 ) Y0 )  )
( or ( <= ( + X0 40 ) X13 )  ( <= ( + X13 82 ) X0 )  ( <= ( + Y0 44 ) Y13 )  ( <= ( + Y13 37 ) Y0 )  )
( or ( <= ( + X0 40 ) X14 )  ( <= ( + X14 93 ) X0 )  ( <= ( + Y0 44 ) Y14 )  ( <= ( + Y14 77 ) Y0 )  )
( or ( <= ( + X1 50 ) X2 )  ( <= ( + X2 78 ) X1 )  ( <= ( + Y1 80 ) Y2 )  ( <= ( + Y2 64 ) Y1 )  )
( or ( <= ( + X1 50 ) X3 )  ( <= ( + X3 25 ) X1 )  ( <= ( + Y1 80 ) Y3 )  ( <= ( + Y3 24 ) Y1 )  )
( or ( <= ( + X1 50 ) X4 )  ( <= ( + X4 95 ) X1 )  ( <= ( + Y1 80 ) Y4 )  ( <= ( + Y4 47 ) Y1 )  )
( or ( <= ( + X1 50 ) X5 )  ( <= ( + X5 32 ) X1 )  ( <= ( + Y1 80 ) Y5 )  ( <= ( + Y5 2 ) Y1 )  )
( or ( <= ( + X1 50 ) X6 )  ( <= ( + X6 54 ) X1 )  ( <= ( + Y1 80 ) Y6 )  ( <= ( + Y6 71 ) Y1 )  )
( or ( <= ( + X1 50 ) X7 )  ( <= ( + X7 77 ) X1 )  ( <= ( + Y1 80 ) Y7 )  ( <= ( + Y7 9 ) Y1 )  )
( or ( <= ( + X1 50 ) X8 )  ( <= ( + X8 67 ) X1 )  ( <= ( + Y1 80 ) Y8 )  ( <= ( + Y8 65 ) Y1 )  )
( or ( <= ( + X1 50 ) X9 )  ( <= ( + X9 16 ) X1 )  ( <= ( + Y1 80 ) Y9 )  ( <= ( + Y9 1 ) Y1 )  )
( or ( <= ( + X1 50 ) X10 )  ( <= ( + X10 9 ) X1 )  ( <= ( + Y1 80 ) Y10 )  ( <= ( + Y10 92 ) Y1 )  )
( or ( <= ( + X1 50 ) X11 )  ( <= ( + X11 79 ) X1 )  ( <= ( + Y1 80 ) Y11 )  ( <= ( + Y11 17 ) Y1 )  )
( or ( <= ( + X1 50 ) X12 )  ( <= ( + X12 84 ) X1 )  ( <= ( + Y1 80 ) Y12 )  ( <= ( + Y12 9 ) Y1 )  )
( or ( <= ( + X1 50 ) X13 )  ( <= ( + X13 82 ) X1 )  ( <= ( + Y1 80 ) Y13 )  ( <= ( + Y13 37 ) Y1 )  )
( or ( <= ( + X1 50 ) X14 )  ( <= ( + X14 93 ) X1 )  ( <= ( + Y1 80 ) Y14 )  ( <= ( + Y14 77 ) Y1 )  )
( or ( <= ( + X2 78 ) X3 )  ( <= ( + X3 25 ) X2 )  ( <= ( + Y2 64 ) Y3 )  ( <= ( + Y3 24 ) Y2 )  )
( or ( <= ( + X2 78 ) X4 )  ( <= ( + X4 95 ) X2 )  ( <= ( + Y2 64 ) Y4 )  ( <= ( + Y4 47 ) Y2 )  )
( or ( <= ( + X2 78 ) X5 )  ( <= ( + X5 32 ) X2 )  ( <= ( + Y2 64 ) Y5 )  ( <= ( + Y5 2 ) Y2 )  )
( or ( <= ( + X2 78 ) X6 )  ( <= ( + X6 54 ) X2 )  ( <= ( + Y2 64 ) Y6 )  ( <= ( + Y6 71 ) Y2 )  )
( or ( <= ( + X2 78 ) X7 )  ( <= ( + X7 77 ) X2 )  ( <= ( + Y2 64 ) Y7 )  ( <= ( + Y7 9 ) Y2 )  )
( or ( <= ( + X2 78 ) X8 )  ( <= ( + X8 67 ) X2 )  ( <= ( + Y2 64 ) Y8 )  ( <= ( + Y8 65 ) Y2 )  )
( or ( <= ( + X2 78 ) X9 )  ( <= ( + X9 16 ) X2 )  ( <= ( + Y2 64 ) Y9 )  ( <= ( + Y9 1 ) Y2 )  )
( or ( <= ( + X2 78 ) X10 )  ( <= ( + X10 9 ) X2 )  ( <= ( + Y2 64 ) Y10 )  ( <= ( + Y10 92 ) Y2 )  )
( or ( <= ( + X2 78 ) X11 )  ( <= ( + X11 79 ) X2 )  ( <= ( + Y2 64 ) Y11 )  ( <= ( + Y11 17 ) Y2 )  )
( or ( <= ( + X2 78 ) X12 )  ( <= ( + X12 84 ) X2 )  ( <= ( + Y2 64 ) Y12 )  ( <= ( + Y12 9 ) Y2 )  )
( or ( <= ( + X2 78 ) X13 )  ( <= ( + X13 82 ) X2 )  ( <= ( + Y2 64 ) Y13 )  ( <= ( + Y13 37 ) Y2 )  )
( or ( <= ( + X2 78 ) X14 )  ( <= ( + X14 93 ) X2 )  ( <= ( + Y2 64 ) Y14 )  ( <= ( + Y14 77 ) Y2 )  )
( or ( <= ( + X3 25 ) X4 )  ( <= ( + X4 95 ) X3 )  ( <= ( + Y3 24 ) Y4 )  ( <= ( + Y4 47 ) Y3 )  )
( or ( <= ( + X3 25 ) X5 )  ( <= ( + X5 32 ) X3 )  ( <= ( + Y3 24 ) Y5 )  ( <= ( + Y5 2 ) Y3 )  )
( or ( <= ( + X3 25 ) X6 )  ( <= ( + X6 54 ) X3 )  ( <= ( + Y3 24 ) Y6 )  ( <= ( + Y6 71 ) Y3 )  )
( or ( <= ( + X3 25 ) X7 )  ( <= ( + X7 77 ) X3 )  ( <= ( + Y3 24 ) Y7 )  ( <= ( + Y7 9 ) Y3 )  )
( or ( <= ( + X3 25 ) X8 )  ( <= ( + X8 67 ) X3 )  ( <= ( + Y3 24 ) Y8 )  ( <= ( + Y8 65 ) Y3 )  )
( or ( <= ( + X3 25 ) X9 )  ( <= ( + X9 16 ) X3 )  ( <= ( + Y3 24 ) Y9 )  ( <= ( + Y9 1 ) Y3 )  )
( or ( <= ( + X3 25 ) X10 )  ( <= ( + X10 9 ) X3 )  ( <= ( + Y3 24 ) Y10 )  ( <= ( + Y10 92 ) Y3 )  )
( or ( <= ( + X3 25 ) X11 )  ( <= ( + X11 79 ) X3 )  ( <= ( + Y3 24 ) Y11 )  ( <= ( + Y11 17 ) Y3 )  )
( or ( <= ( + X3 25 ) X12 )  ( <= ( + X12 84 ) X3 )  ( <= ( + Y3 24 ) Y12 )  ( <= ( + Y12 9 ) Y3 )  )
( or ( <= ( + X3 25 ) X13 )  ( <= ( + X13 82 ) X3 )  ( <= ( + Y3 24 ) Y13 )  ( <= ( + Y13 37 ) Y3 )  )
( or ( <= ( + X3 25 ) X14 )  ( <= ( + X14 93 ) X3 )  ( <= ( + Y3 24 ) Y14 )  ( <= ( + Y14 77 ) Y3 )  )
( or ( <= ( + X4 95 ) X5 )  ( <= ( + X5 32 ) X4 )  ( <= ( + Y4 47 ) Y5 )  ( <= ( + Y5 2 ) Y4 )  )
( or ( <= ( + X4 95 ) X6 )  ( <= ( + X6 54 ) X4 )  ( <= ( + Y4 47 ) Y6 )  ( <= ( + Y6 71 ) Y4 )  )
( or ( <= ( + X4 95 ) X7 )  ( <= ( + X7 77 ) X4 )  ( <= ( + Y4 47 ) Y7 )  ( <= ( + Y7 9 ) Y4 )  )
( or ( <= ( + X4 95 ) X8 )  ( <= ( + X8 67 ) X4 )  ( <= ( + Y4 47 ) Y8 )  ( <= ( + Y8 65 ) Y4 )  )
( or ( <= ( + X4 95 ) X9 )  ( <= ( + X9 16 ) X4 )  ( <= ( + Y4 47 ) Y9 )  ( <= ( + Y9 1 ) Y4 )  )
( or ( <= ( + X4 95 ) X10 )  ( <= ( + X10 9 ) X4 )  ( <= ( + Y4 47 ) Y10 )  ( <= ( + Y10 92 ) Y4 )  )
( or ( <= ( + X4 95 ) X11 )  ( <= ( + X11 79 ) X4 )  ( <= ( + Y4 47 ) Y11 )  ( <= ( + Y11 17 ) Y4 )  )
( or ( <= ( + X4 95 ) X12 )  ( <= ( + X12 84 ) X4 )  ( <= ( + Y4 47 ) Y12 )  ( <= ( + Y12 9 ) Y4 )  )
( or ( <= ( + X4 95 ) X13 )  ( <= ( + X13 82 ) X4 )  ( <= ( + Y4 47 ) Y13 )  ( <= ( + Y13 37 ) Y4 )  )
( or ( <= ( + X4 95 ) X14 )  ( <= ( + X14 93 ) X4 )  ( <= ( + Y4 47 ) Y14 )  ( <= ( + Y14 77 ) Y4 )  )
( or ( <= ( + X5 32 ) X6 )  ( <= ( + X6 54 ) X5 )  ( <= ( + Y5 2 ) Y6 )  ( <= ( + Y6 71 ) Y5 )  )
( or ( <= ( + X5 32 ) X7 )  ( <= ( + X7 77 ) X5 )  ( <= ( + Y5 2 ) Y7 )  ( <= ( + Y7 9 ) Y5 )  )
( or ( <= ( + X5 32 ) X8 )  ( <= ( + X8 67 ) X5 )  ( <= ( + Y5 2 ) Y8 )  ( <= ( + Y8 65 ) Y5 )  )
( or ( <= ( + X5 32 ) X9 )  ( <= ( + X9 16 ) X5 )  ( <= ( + Y5 2 ) Y9 )  ( <= ( + Y9 1 ) Y5 )  )
( or ( <= ( + X5 32 ) X10 )  ( <= ( + X10 9 ) X5 )  ( <= ( + Y5 2 ) Y10 )  ( <= ( + Y10 92 ) Y5 )  )
( or ( <= ( + X5 32 ) X11 )  ( <= ( + X11 79 ) X5 )  ( <= ( + Y5 2 ) Y11 )  ( <= ( + Y11 17 ) Y5 )  )
( or ( <= ( + X5 32 ) X12 )  ( <= ( + X12 84 ) X5 )  ( <= ( + Y5 2 ) Y12 )  ( <= ( + Y12 9 ) Y5 )  )
( or ( <= ( + X5 32 ) X13 )  ( <= ( + X13 82 ) X5 )  ( <= ( + Y5 2 ) Y13 )  ( <= ( + Y13 37 ) Y5 )  )
( or ( <= ( + X5 32 ) X14 )  ( <= ( + X14 93 ) X5 )  ( <= ( + Y5 2 ) Y14 )  ( <= ( + Y14 77 ) Y5 )  )
( or ( <= ( + X6 54 ) X7 )  ( <= ( + X7 77 ) X6 )  ( <= ( + Y6 71 ) Y7 )  ( <= ( + Y7 9 ) Y6 )  )
( or ( <= ( + X6 54 ) X8 )  ( <= ( + X8 67 ) X6 )  ( <= ( + Y6 71 ) Y8 )  ( <= ( + Y8 65 ) Y6 )  )
( or ( <= ( + X6 54 ) X9 )  ( <= ( + X9 16 ) X6 )  ( <= ( + Y6 71 ) Y9 )  ( <= ( + Y9 1 ) Y6 )  )
( or ( <= ( + X6 54 ) X10 )  ( <= ( + X10 9 ) X6 )  ( <= ( + Y6 71 ) Y10 )  ( <= ( + Y10 92 ) Y6 )  )
( or ( <= ( + X6 54 ) X11 )  ( <= ( + X11 79 ) X6 )  ( <= ( + Y6 71 ) Y11 )  ( <= ( + Y11 17 ) Y6 )  )
( or ( <= ( + X6 54 ) X12 )  ( <= ( + X12 84 ) X6 )  ( <= ( + Y6 71 ) Y12 )  ( <= ( + Y12 9 ) Y6 )  )
( or ( <= ( + X6 54 ) X13 )  ( <= ( + X13 82 ) X6 )  ( <= ( + Y6 71 ) Y13 )  ( <= ( + Y13 37 ) Y6 )  )
( or ( <= ( + X6 54 ) X14 )  ( <= ( + X14 93 ) X6 )  ( <= ( + Y6 71 ) Y14 )  ( <= ( + Y14 77 ) Y6 )  )
( or ( <= ( + X7 77 ) X8 )  ( <= ( + X8 67 ) X7 )  ( <= ( + Y7 9 ) Y8 )  ( <= ( + Y8 65 ) Y7 )  )
( or ( <= ( + X7 77 ) X9 )  ( <= ( + X9 16 ) X7 )  ( <= ( + Y7 9 ) Y9 )  ( <= ( + Y9 1 ) Y7 )  )
( or ( <= ( + X7 77 ) X10 )  ( <= ( + X10 9 ) X7 )  ( <= ( + Y7 9 ) Y10 )  ( <= ( + Y10 92 ) Y7 )  )
( or ( <= ( + X7 77 ) X11 )  ( <= ( + X11 79 ) X7 )  ( <= ( + Y7 9 ) Y11 )  ( <= ( + Y11 17 ) Y7 )  )
( or ( <= ( + X7 77 ) X12 )  ( <= ( + X12 84 ) X7 )  ( <= ( + Y7 9 ) Y12 )  ( <= ( + Y12 9 ) Y7 )  )
( or ( <= ( + X7 77 ) X13 )  ( <= ( + X13 82 ) X7 )  ( <= ( + Y7 9 ) Y13 )  ( <= ( + Y13 37 ) Y7 )  )
( or ( <= ( + X7 77 ) X14 )  ( <= ( + X14 93 ) X7 )  ( <= ( + Y7 9 ) Y14 )  ( <= ( + Y14 77 ) Y7 )  )
( or ( <= ( + X8 67 ) X9 )  ( <= ( + X9 16 ) X8 )  ( <= ( + Y8 65 ) Y9 )  ( <= ( + Y9 1 ) Y8 )  )
( or ( <= ( + X8 67 ) X10 )  ( <= ( + X10 9 ) X8 )  ( <= ( + Y8 65 ) Y10 )  ( <= ( + Y10 92 ) Y8 )  )
( or ( <= ( + X8 67 ) X11 )  ( <= ( + X11 79 ) X8 )  ( <= ( + Y8 65 ) Y11 )  ( <= ( + Y11 17 ) Y8 )  )
( or ( <= ( + X8 67 ) X12 )  ( <= ( + X12 84 ) X8 )  ( <= ( + Y8 65 ) Y12 )  ( <= ( + Y12 9 ) Y8 )  )
( or ( <= ( + X8 67 ) X13 )  ( <= ( + X13 82 ) X8 )  ( <= ( + Y8 65 ) Y13 )  ( <= ( + Y13 37 ) Y8 )  )
( or ( <= ( + X8 67 ) X14 )  ( <= ( + X14 93 ) X8 )  ( <= ( + Y8 65 ) Y14 )  ( <= ( + Y14 77 ) Y8 )  )
( or ( <= ( + X9 16 ) X10 )  ( <= ( + X10 9 ) X9 )  ( <= ( + Y9 1 ) Y10 )  ( <= ( + Y10 92 ) Y9 )  )
( or ( <= ( + X9 16 ) X11 )  ( <= ( + X11 79 ) X9 )  ( <= ( + Y9 1 ) Y11 )  ( <= ( + Y11 17 ) Y9 )  )
( or ( <= ( + X9 16 ) X12 )  ( <= ( + X12 84 ) X9 )  ( <= ( + Y9 1 ) Y12 )  ( <= ( + Y12 9 ) Y9 )  )
( or ( <= ( + X9 16 ) X13 )  ( <= ( + X13 82 ) X9 )  ( <= ( + Y9 1 ) Y13 )  ( <= ( + Y13 37 ) Y9 )  )
( or ( <= ( + X9 16 ) X14 )  ( <= ( + X14 93 ) X9 )  ( <= ( + Y9 1 ) Y14 )  ( <= ( + Y14 77 ) Y9 )  )
( or ( <= ( + X10 9 ) X11 )  ( <= ( + X11 79 ) X10 )  ( <= ( + Y10 92 ) Y11 )  ( <= ( + Y11 17 ) Y10 )  )
( or ( <= ( + X10 9 ) X12 )  ( <= ( + X12 84 ) X10 )  ( <= ( + Y10 92 ) Y12 )  ( <= ( + Y12 9 ) Y10 )  )
( or ( <= ( + X10 9 ) X13 )  ( <= ( + X13 82 ) X10 )  ( <= ( + Y10 92 ) Y13 )  ( <= ( + Y13 37 ) Y10 )  )
( or ( <= ( + X10 9 ) X14 )  ( <= ( + X14 93 ) X10 )  ( <= ( + Y10 92 ) Y14 )  ( <= ( + Y14 77 ) Y10 )  )
( or ( <= ( + X11 79 ) X12 )  ( <= ( + X12 84 ) X11 )  ( <= ( + Y11 17 ) Y12 )  ( <= ( + Y12 9 ) Y11 )  )
( or ( <= ( + X11 79 ) X13 )  ( <= ( + X13 82 ) X11 )  ( <= ( + Y11 17 ) Y13 )  ( <= ( + Y13 37 ) Y11 )  )
( or ( <= ( + X11 79 ) X14 )  ( <= ( + X14 93 ) X11 )  ( <= ( + Y11 17 ) Y14 )  ( <= ( + Y14 77 ) Y11 )  )
( or ( <= ( + X12 84 ) X13 )  ( <= ( + X13 82 ) X12 )  ( <= ( + Y12 9 ) Y13 )  ( <= ( + Y13 37 ) Y12 )  )
( or ( <= ( + X12 84 ) X14 )  ( <= ( + X14 93 ) X12 )  ( <= ( + Y12 9 ) Y14 )  ( <= ( + Y14 77 ) Y12 )  )
( or ( <= ( + X13 82 ) X14 )  ( <= ( + X14 93 ) X13 )  ( <= ( + Y13 37 ) Y14 )  ( <= ( + Y14 77 ) Y13 )  )
( >= X0 0)
( <= ( + X0 40) Z)
( >= Y0 0)
( <= ( + Y0 44 ) 100)
( >= X1 0)
( <= ( + X1 50) Z)
( >= Y1 0)
( <= ( + Y1 80 ) 100)
( >= X2 0)
( <= ( + X2 78) Z)
( >= Y2 0)
( <= ( + Y2 64 ) 100)
( >= X3 0)
( <= ( + X3 25) Z)
( >= Y3 0)
( <= ( + Y3 24 ) 100)
( >= X4 0)
( <= ( + X4 95) Z)
( >= Y4 0)
( <= ( + Y4 47 ) 100)
( >= X5 0)
( <= ( + X5 32) Z)
( >= Y5 0)
( <= ( + Y5 2 ) 100)
( >= X6 0)
( <= ( + X6 54) Z)
( >= Y6 0)
( <= ( + Y6 71 ) 100)
( >= X7 0)
( <= ( + X7 77) Z)
( >= Y7 0)
( <= ( + Y7 9 ) 100)
( >= X8 0)
( <= ( + X8 67) Z)
( >= Y8 0)
( <= ( + Y8 65 ) 100)
( >= X9 0)
( <= ( + X9 16) Z)
( >= Y9 0)
( <= ( + Y9 1 ) 100)
( >= X10 0)
( <= ( + X10 9) Z)
( >= Y10 0)
( <= ( + Y10 92 ) 100)
( >= X11 0)
( <= ( + X11 79) Z)
( >= Y11 0)
( <= ( + Y11 17 ) 100)
( >= X12 0)
( <= ( + X12 84) Z)
( >= Y12 0)
( <= ( + Y12 9 ) 100)
( >= X13 0)
( <= ( + X13 82) Z)
( >= Y13 0)
( <= ( + Y13 37 ) 100)
( >= X14 0)
( <= ( + X14 93) Z)
( >= Y14 0)
( <= ( + Y14 77 ) 100)
) )
)(=> $phi $goal))))